55
3 0 1
3 1 1
3 2 1
4 0 1
4 2 1
4 3 1
5 0 1
5 3 1
5 4 1
6 0 1
6 2 1
7 1 1
7 2 1
8 2 1
8 5 1
8 6 1
8 7 1
9 0 1
9 2 1
9 6 1
9 7 1
10 0 1
10 2 1
10 7 1
11 4 1
11 6 1
11 7 1
11 8 1
11 10 1
12 0 1
12 1 1
12 3 1
12 4 1
12 5 1
12 6 1
12 8 1
13 0 1
13 1 1
13 3 1
13 4 1
13 6 1
13 7 1
13 10 1
13 11 1
13 12 1
14 2 1
14 3 1
14 4 1
14 13 1
15 0 1
15 2 1
15 5 1
15 11 1
15 13 1
15 14 1
16 0 1
16 1 1
16 3 1
16 7 1
16 9 1
16 10 1
16 12 1
16 14 1
16 15 1
17 0 1
17 1 1
17 2 1
17 3 1
17 6 1
17 10 1
17 11 1
17 12 1
17 16 1
18 1 1
18 4 1
18 5 1
18 6 1
18 10 1
18 15 1
18 17 1
19 0 1
19 1 1
19 3 1
19 5 1
19 7 1
19 8 1
19 9 1
19 10 1
19 14 1
19 18 1
20 2 1
20 5 1
20 8 1
20 13 1
20 17 1
21 1 1
21 2 1
21 5 1
21 6 1
21 10 1
21 11 1
21 14 1
21 15 1
21 16 1
21 17 1
21 19 1
21 20 1
22 0 1
22 3 1
22 5 1
22 8 1
22 9 1
22 10 1
22 12 1
22 14 1
22 15 1
22 16 1
22 17 1
22 21 1
23 3 1
23 4 1
23 7 1
23 9 1
23 11 1
23 12 1
23 14 1
23 16 1
23 18 1
23 22 1
24 0 1
24 3 1
24 5 1
24 9 1
24 12 1
24 14 1
24 17 1
24 21 1
24 23 1
25 0 1
25 6 1
25 11 1
25 16 1
25 18 1
25 19 1
25 23 1
26 0 1
26 2 1
26 3 1
26 4 1
26 5 1
26 7 1
26 8 1
26 10 1
26 11 1
26 12 1
26 14 1
26 15 1
26 17 1
26 18 1
26 19 1
27 0 1
27 5 1
27 8 1
27 10 1
27 12 1
27 19 1
27 21 1
27 23 1
27 26 1
28 0 1
28 1 1
28 2 1
28 5 1
28 8 1
28 9 1
28 10 1
28 11 1
28 12 1
28 14 1
28 15 1
28 22 1
28 23 1
28 25 1
29 0 1
29 1 1
29 2 1
29 4 1
29 6 1
29 7 1
29 8 1
29 10 1
29 12 1
29 13 1
29 14 1
29 17 1
29 18 1
29 19 1
29 20 1
29 22 1
29 24 1
29 27 1
30 2 1
30 3 1
30 4 1
30 5 1
30 6 1
30 8 1
30 9 1
30 11 1
30 13 1
30 15 1
30 16 1
30 17 1
30 18 1
30 19 1
30 24 1
30 25 1
30 27 1
31 0 1
31 1 1
31 3 1
31 4 1
31 6 1
31 8 1
31 9 1
31 10 1
31 13 1
31 18 1
31 19 1
31 20 1
31 23 1
31 24 1
31 25 1
31 26 1
31 27 1
31 28 1
31 29 1
32 1 1
32 2 1
32 7 1
32 8 1
32 10 1
32 11 1
32 12 1
32 13 1
32 14 1
32 17 1
32 18 1
32 20 1
32 21 1
32 22 1
32 23 1
32 26 1
32 28 1
32 29 1
32 30 1
32 31 1
33 0 1
33 1 1
33 3 1
33 5 1
33 8 1
33 11 1
33 12 1
33 13 1
33 14 1
33 15 1
33 19 1
33 20 1
33 21 1
33 23 1
33 25 1
33 26 1
33 29 1
33 30 1
33 32 1
34 0 1
34 2 1
34 7 1
34 8 1
34 9 1
34 11 1
34 13 1
34 15 1
34 17 1
34 18 1
34 20 1
34 24 1
34 25 1
34 26 1
34 28 1
34 29 1
34 30 1
34 33 1
35 0 1
35 2 1
35 3 1
35 9 1
35 13 1
35 15 1
35 16 1
35 18 1
35 19 1
35 20 1
35 24 1
35 25 1
35 27 1
35 30 1
36 2 1
36 3 1
36 7 1
36 8 1
36 9 1
36 12 1
36 13 1
36 15 1
36 16 1
36 18 1
36 20 1
36 21 1
36 23 1
36 25 1
36 26 1
36 29 1
36 31 1
36 32 1
37 0 1
37 1 1
37 4 1
37 5 1
37 6 1
37 10 1
37 11 1
37 16 1
37 17 1
37 19 1
37 20 1
37 22 1
37 23 1
37 25 1
37 27 1
37 28 1
37 29 1
37 32 1
37 33 1
37 34 1
37 35 1
38 1 1
38 4 1
38 6 1
38 13 1
38 14 1
38 17 1
38 19 1
38 22 1
38 23 1
38 24 1
38 26 1
38 27 1
38 28 1
38 29 1
38 30 1
38 33 1
38 34 1
38 36 1
38 37 1
39 1 1
39 2 1
39 4 1
39 5 1
39 7 1
39 8 1
39 11 1
39 13 1
39 16 1
39 17 1
39 18 1
39 19 1
39 20 1
39 29 1
39 32 1
39 36 1
40 2 1
40 3 1
40 4 1
40 5 1
40 6 1
40 7 1
40 8 1
40 9 1
40 11 1
40 12 1
40 14 1
40 15 1
40 18 1
40 19 1
40 22 1
40 24 1
40 28 1
40 30 1
40 31 1
40 38 1
40 39 1
41 0 1
41 3 1
41 5 1
41 7 1
41 8 1
41 9 1
41 12 1
41 13 1
41 15 1
41 16 1
41 17 1
41 19 1
41 22 1
41 25 1
41 27 1
41 28 1
41 34 1
41 38 1
41 39 1
42 0 1
42 1 1
42 5 1
42 7 1
42 9 1
42 11 1
42 13 1
42 15 1
42 17 1
42 19 1
42 20 1
42 22 1
42 23 1
42 24 1
42 26 1
42 27 1
42 28 1
42 30 1
42 31 1
42 33 1
42 34 1
42 35 1
42 36 1
42 41 1
43 0 1
43 2 1
43 3 1
43 5 1
43 6 1
43 8 1
43 10 1
43 12 1
43 15 1
43 16 1
43 19 1
43 20 1
43 23 1
43 25 1
43 28 1
43 29 1
43 30 1
43 31 1
43 34 1
43 35 1
43 37 1
43 39 1
43 40 1
43 42 1
44 0 1
44 1 1
44 3 1
44 4 1
44 7 1
44 10 1
44 11 1
44 22 1
44 23 1
44 25 1
44 27 1
44 28 1
44 29 1
44 30 1
44 31 1
44 33 1
44 34 1
44 37 1
44 38 1
44 39 1
44 42 1
44 43 1
45 1 1
45 3 1
45 4 1
45 9 1
45 10 1
45 11 1
45 12 1
45 13 1
45 14 1
45 19 1
45 20 1
45 21 1
45 23 1
45 24 1
45 30 1
45 31 1
45 33 1
45 34 1
45 36 1
45 37 1
45 39 1
46 0 1
46 2 1
46 3 1
46 4 1
46 5 1
46 8 1
46 9 1
46 14 1
46 15 1
46 16 1
46 17 1
46 18 1
46 21 1
46 22 1
46 23 1
46 27 1
46 28 1
46 30 1
46 32 1
46 40 1
46 41 1
46 42 1
46 45 1
47 3 1
47 5 1
47 8 1
47 9 1
47 10 1
47 11 1
47 12 1
47 13 1
47 15 1
47 17 1
47 20 1
47 23 1
47 24 1
47 26 1
47 30 1
47 31 1
47 33 1
47 34 1
47 36 1
47 37 1
47 38 1
47 41 1
47 45 1
48 0 1
48 1 1
48 2 1
48 3 1
48 5 1
48 6 1
48 7 1
48 8 1
48 13 1
48 15 1
48 17 1
48 18 1
48 21 1
48 24 1
48 26 1
48 29 1
48 30 1
48 32 1
48 35 1
48 36 1
48 38 1
48 40 1
48 43 1
48 44 1
48 46 1
49 0 1
49 5 1
49 8 1
49 12 1
49 14 1
49 15 1
49 16 1
49 17 1
49 20 1
49 22 1
49 24 1
49 26 1
49 28 1
49 31 1
49 32 1
49 34 1
49 35 1
49 36 1
49 41 1
49 43 1
49 44 1
49 45 1
49 46 1
49 48 1
50 0 1
50 2 1
50 3 1
50 5 1
50 6 1
50 7 1
50 10 1
50 12 1
50 17 1
50 18 1
50 21 1
50 26 1
50 31 1
50 32 1
50 36 1
50 38 1
50 39 1
50 40 1
50 42 1
50 43 1
50 45 1
51 0 1
51 2 1
51 3 1
51 5 1
51 10 1
51 11 1
51 13 1
51 16 1
51 19 1
51 20 1
51 23 1
51 25 1
51 29 1
51 30 1
51 32 1
51 34 1
51 36 1
51 37 1
51 41 1
51 42 1
51 43 1
51 44 1
51 46 1
51 47 1
51 48 1
51 49 1
52 0 1
52 2 1
52 5 1
52 6 1
52 7 1
52 9 1
52 12 1
52 13 1
52 14 1
52 15 1
52 16 1
52 18 1
52 19 1
52 20 1
52 22 1
52 25 1
52 27 1
52 31 1
52 32 1
52 35 1
52 38 1
52 39 1
52 40 1
52 44 1
52 46 1
52 47 1
52 48 1
52 49 1
53 2 1
53 3 1
53 7 1
53 8 1
53 9 1
53 10 1
53 13 1
53 16 1
53 18 1
53 22 1
53 23 1
53 25 1
53 27 1
53 29 1
53 30 1
53 31 1
53 37 1
53 39 1
53 40 1
53 41 1
53 42 1
53 43 1
53 44 1
53 45 1
53 46 1
53 48 1
53 49 1
53 51 1
54 0 1
54 2 1
54 3 1
54 7 1
54 11 1
54 14 1
54 15 1
54 17 1
54 18 1
54 19 1
54 21 1
54 22 1
54 23 1
54 24 1
54 26 1
54 31 1
54 32 1
54 34 1
54 35 1
54 38 1
54 39 1
54 40 1
54 42 1
54 52 1
